NAME: archivos8
TYPE: TSP
COMMENT: 8-Staedte in archivos8 (Zaw Win)
DIMENSION: 8
EDGE_WEIGHT_TYPE: GEO
EDGE_WEIGHT_FORMAT: FUNCTION
DISPLAY_DATA_TYPE: COORD_DISPLAY
NODE_COORD_SECTION
1 266.49 73.73
2 53.32 40.71
3 50.04 91.61
4 194.86 20.77
5 201.49 153.51
6 146.95 235.27
7 40.87 169.29
8 383.78 81.26
EOF